Route 1: 0 26 69 89 41 73 11 62 0
Route 2: 0 46 29 91 99 1 23 6 0
Route 3: 0 63 83 31 28 98 7 13 37 0
Route 4: 0 2 53 78 32 8 71 96 84 72 20 56 0
Route 5: 0 22 57 86 61 15 54 40 0
Route 6: 0 14 52 93 38 43 17 59 36 27 0
Route 7: 0 39 95 68 64 35 77 0
Route 8: 0 21 24 76 45 55 47 65 94 0
Route 9: 0 30 12 48 92 3 88 5 49 0
Route 10: 0 16 42 75 4 97 66 25 0
Route 11: 0 44 87 10 67 34 9 18 0
Route 12: 0 81 70 74 51 100 82 19 80 79 60 50 0
Route 13: 0 33 85 90 58 0
